* #variable= 51 #constraint= NBCONSTR
+49 x1 +2 x-25 +2 x-24 +2 x-23 +2 x-22 +2 x-21 +2 x-20 +2 x-19 +2 x-18 +2 x-17 +2 x-16 +2 x-15 +2 x-14 +2 x-13 +2 x-12 +2 x-11 +2 x-10 +2 x-9 +2 x-8 +2 x-7 +2 x-6 +2 x-5 +2 x-4 +2 x-3 +2 x-2 >= 49
+48 x12 +2 x-26 +2 x-25 +2 x-24 +2 x-23 +2 x-22 +2 x-21 +2 x-20 +2 x-19 +2 x-18 +2 x-17 +2 x-16 +2 x-15 +2 x-14 +2 x-13 +2 x-11 +2 x-10 +2 x-9 +2 x-8 +2 x-7 +2 x-6 +2 x-5 +2 x-4 +2 x-3 +2 x-2 +2 x-1 >= 49
+46 x25 +2 x-27 +2 x-26 +2 x-24 +2 x-23 +2 x-22 +2 x-21 +2 x-20 +2 x-19 +2 x-18 +2 x-17 +2 x-16 +2 x-15 +2 x-14 +2 x-13 +2 x-12 +2 x-11 +2 x-10 +2 x-9 +2 x-8 +2 x-7 +2 x-6 +2 x-5 +2 x-4 +2 x-3 +2 x-2 +2 x-1 >= 49
+44 x24 +2 x-28 +2 x-27 +2 x-26 +2 x-25 +2 x-23 +2 x-22 +2 x-21 +2 x-20 +2 x-19 +2 x-18 +2 x-17 +2 x-16 +2 x-15 +2 x-14 +2 x-13 +2 x-12 +2 x-11 +2 x-10 +2 x-9 +2 x-8 +2 x-7 +2 x-6 +2 x-5 +2 x-4 +2 x-3 +2 x-2 +2 x-1 >= 49
+42 x6 +2 x-29 +2 x-28 +2 x-27 +2 x-26 +2 x-25 +2 x-24 +2 x-23 +2 x-22 +2 x-21 +2 x-20 +2 x-19 +2 x-18 +2 x-17 +2 x-16 +2 x-15 +2 x-14 +2 x-13 +2 x-12 +2 x-11 +2 x-10 +2 x-9 +2 x-8 +2 x-7 +2 x-5 +2 x-4 +2 x-3 +2 x-2 +2 x-1 >= 49
+40 x23 +2 x-30 +2 x-29 +2 x-28 +2 x-27 +2 x-26 +2 x-25 +2 x-24 +2 x-22 +2 x-21 +2 x-20 +2 x-19 +2 x-18 +2 x-17 +2 x-16 +2 x-15 +2 x-14 +2 x-13 +2 x-12 +2 x-11 +2 x-10 +2 x-9 +2 x-8 +2 x-7 +2 x-6 +2 x-5 +2 x-4 +2 x-3 +2 x-2 +2 x-1 >= 49
+38 x11 +2 x-31 +2 x-30 +2 x-29 +2 x-28 +2 x-27 +2 x-26 +2 x-25 +2 x-24 +2 x-23 +2 x-22 +2 x-21 +2 x-20 +2 x-19 +2 x-18 +2 x-17 +2 x-16 +2 x-15 +2 x-14 +2 x-13 +2 x-12 +2 x-10 +2 x-9 +2 x-8 +2 x-7 +2 x-6 +2 x-5 +2 x-4 +2 x-3 +2 x-2 +2 x-1 >= 49
+34 x2 +2 x-44 +2 x-32 +2 x-31 +2 x-30 +2 x-29 +2 x-28 +2 x-27 +2 x-26 +2 x-25 +2 x-24 +2 x-23 +2 x-22 +2 x-21 +2 x-20 +2 x-19 +2 x-18 +2 x-17 +2 x-16 +2 x-15 +2 x-14 +2 x-13 +2 x-12 +2 x-11 +2 x-10 +2 x-9 +2 x-8 +2 x-7 +2 x-6 +2 x-5 +2 x-4 +2 x-3 +2 x-1 >= 49
+30 x10 +2 x-44 +2 x-42 +2 x-33 +2 x-32 +2 x-31 +2 x-30 +2 x-29 +2 x-28 +2 x-27 +2 x-26 +2 x-25 +2 x-24 +2 x-23 +2 x-22 +2 x-21 +2 x-20 +2 x-19 +2 x-18 +2 x-17 +2 x-16 +2 x-15 +2 x-14 +2 x-13 +2 x-12 +2 x-11 +2 x-9 +2 x-8 +2 x-7 +2 x-6 +2 x-5 +2 x-4 +2 x-3 +2 x-2 +2 x-1 >= 49
+24 x4 +2 x-44 +2 x-42 +2 x-41 +2 x-40 +2 x-34 +2 x-33 +2 x-32 +2 x-31 +2 x-30 +2 x-29 +2 x-28 +2 x-27 +2 x-26 +2 x-25 +2 x-24 +2 x-23 +2 x-22 +2 x-21 +2 x-20 +2 x-19 +2 x-18 +2 x-17 +2 x-16 +2 x-15 +2 x-14 +2 x-13 +2 x-12 +2 x-11 +2 x-10 +2 x-9 +2 x-8 +2 x-7 +2 x-6 +2 x-5 +2 x-3 +2 x-2 +2 x-1 >= 49
+22 x19 +2 x-44 +2 x-42 +2 x-41 +2 x-40 +2 x-35 +2 x-34 +2 x-33 +2 x-32 +2 x-31 +2 x-30 +2 x-29 +2 x-28 +2 x-27 +2 x-26 +2 x-25 +2 x-24 +2 x-23 +2 x-22 +2 x-21 +2 x-20 +2 x-18 +2 x-17 +2 x-16 +2 x-15 +2 x-14 +2 x-13 +2 x-12 +2 x-11 +2 x-10 +2 x-9 +2 x-8 +2 x-7 +2 x-6 +2 x-5 +2 x-4 +2 x-3 +2 x-2 +2 x-1 >= 49
+16 x17 +2 x-44 +2 x-42 +2 x-41 +2 x-40 +2 x-38 +2 x-37 +2 x-36 +2 x-35 +2 x-34 +2 x-33 +2 x-32 +2 x-31 +2 x-30 +2 x-29 +2 x-28 +2 x-27 +2 x-26 +2 x-25 +2 x-24 +2 x-23 +2 x-22 +2 x-21 +2 x-20 +2 x-19 +2 x-18 +2 x-16 +2 x-15 +2 x-14 +2 x-13 +2 x-12 +2 x-11 +2 x-10 +2 x-9 +2 x-8 +2 x-7 +2 x-6 +2 x-5 +2 x-4 +2 x-3 +2 x-2 +2 x-1 >= 49
+14 x34 +2 x-44 +2 x-42 +2 x-41 +2 x-40 +2 x-39 +2 x-38 +2 x-37 +2 x-36 +2 x-35 +2 x-33 +2 x-32 +2 x-31 +2 x-30 +2 x-29 +2 x-28 +2 x-27 +2 x-26 +2 x-25 +2 x-24 +2 x-23 +2 x-22 +2 x-21 +2 x-20 +2 x-19 +2 x-18 +2 x-17 +2 x-16 +2 x-15 +2 x-14 +2 x-13 +2 x-12 +2 x-11 +2 x-10 +2 x-9 +2 x-8 +2 x-7 +2 x-6 +2 x-5 +2 x-4 +2 x-3 +2 x-2 +2 x-1 >= 49
+12 x16 +2 x-44 +2 x-43 +2 x-42 +2 x-41 +2 x-40 +2 x-39 +2 x-38 +2 x-37 +2 x-36 +2 x-35 +2 x-34 +2 x-33 +2 x-32 +2 x-31 +2 x-30 +2 x-29 +2 x-28 +2 x-27 +2 x-26 +2 x-25 +2 x-24 +2 x-23 +2 x-22 +2 x-21 +2 x-20 +2 x-19 +2 x-18 +2 x-17 +2 x-15 +2 x-14 +2 x-13 +2 x-12 +2 x-11 +2 x-10 +2 x-9 +2 x-8 +2 x-7 +2 x-6 +2 x-5 +2 x-4 +2 x-3 +2 x-2 +2 x-1 >= 49
+10 x32 +2 x-45 +2 x-44 +2 x-43 +2 x-42 +2 x-41 +2 x-40 +2 x-39 +2 x-38 +2 x-37 +2 x-36 +2 x-35 +2 x-34 +2 x-33 +2 x-31 +2 x-30 +2 x-29 +2 x-28 +2 x-27 +2 x-26 +2 x-25 +2 x-24 +2 x-23 +2 x-22 +2 x-21 +2 x-20 +2 x-19 +2 x-18 +2 x-17 +2 x-16 +2 x-15 +2 x-14 +2 x-13 +2 x-12 +2 x-11 +2 x-10 +2 x-9 +2 x-8 +2 x-7 +2 x-6 +2 x-5 +2 x-4 +2 x-3 +2 x-2 +2 x-1 >= 49
+8 x30 +2 x-46 +2 x-45 +2 x-44 +2 x-43 +2 x-42 +2 x-41 +2 x-40 +2 x-39 +2 x-38 +2 x-37 +2 x-36 +2 x-35 +2 x-34 +2 x-33 +2 x-32 +2 x-31 +2 x-29 +2 x-28 +2 x-27 +2 x-26 +2 x-25 +2 x-24 +2 x-23 +2 x-22 +2 x-21 +2 x-20 +2 x-19 +2 x-18 +2 x-17 +2 x-16 +2 x-15 +2 x-14 +2 x-13 +2 x-12 +2 x-11 +2 x-10 +2 x-9 +2 x-8 +2 x-7 +2 x-6 +2 x-5 +2 x-4 +2 x-3 +2 x-2 +2 x-1 >= 49
+6 x7 +2 x-47 +2 x-46 +2 x-45 +2 x-44 +2 x-43 +2 x-42 +2 x-41 +2 x-40 +2 x-39 +2 x-38 +2 x-37 +2 x-36 +2 x-35 +2 x-34 +2 x-33 +2 x-32 +2 x-31 +2 x-30 +2 x-29 +2 x-28 +2 x-27 +2 x-26 +2 x-25 +2 x-24 +2 x-23 +2 x-22 +2 x-21 +2 x-20 +2 x-19 +2 x-18 +2 x-17 +2 x-16 +2 x-15 +2 x-14 +2 x-13 +2 x-12 +2 x-11 +2 x-10 +2 x-9 +2 x-8 +2 x-6 +2 x-5 +2 x-4 +2 x-3 +2 x-2 +2 x-1 >= 49
+4 x14 +2 x-48 +2 x-47 +2 x-46 +2 x-45 +2 x-44 +2 x-43 +2 x-42 +2 x-41 +2 x-40 +2 x-39 +2 x-38 +2 x-37 +2 x-36 +2 x-35 +2 x-34 +2 x-33 +2 x-32 +2 x-31 +2 x-30 +2 x-29 +2 x-28 +2 x-27 +2 x-26 +2 x-25 +2 x-24 +2 x-23 +2 x-22 +2 x-21 +2 x-20 +2 x-19 +2 x-18 +2 x-17 +2 x-16 +2 x-15 +2 x-13 +2 x-12 +2 x-11 +2 x-10 +2 x-9 +2 x-8 +2 x-7 +2 x-6 +2 x-5 +2 x-4 +2 x-3 +2 x-2 +2 x-1 >= 49
+2 x-50 +2 x-49 +2 x-48 +2 x-47 +2 x-46 +2 x-45 +2 x-44 +2 x-43 +2 x-42 +2 x-41 +2 x-40 +2 x-39 +2 x-38 +2 x-37 +2 x-36 +2 x-35 +2 x-34 +2 x-33 +2 x-32 +2 x-31 +2 x-30 +2 x-29 +2 x-27 +2 x-26 +2 x-25 +2 x-24 +2 x-23 +2 x-22 +2 x-21 +2 x-20 +2 x-19 +2 x-18 +2 x-17 +2 x-16 +2 x-15 +2 x-14 +2 x-13 +2 x-12 +2 x-11 +2 x-10 +2 x-9 +2 x-8 +2 x-7 +2 x-6 +2 x-5 +2 x-4 +2 x-3 +2 x-2 +2 x-1 >= 49
+47 x-44 +47 x-42 +47 x-41 +47 x-40 +47 x-37 +47 x-36 +47 x-25 +47 x-24 +47 x-23 +47 x-19 +47 x-12 +47 x-11 +47 x-10 +47 x-6 +47 x-4 +47 x-2 +47 x-1 +2 x-49 +2 x-48 +2 x-47 +2 x-46 +2 x-45 +2 x-43 +2 x-39 +2 x-38 +2 x-35 +2 x-33 +2 x-31 +2 x-29 +2 x-27 +2 x-26 +2 x-22 +2 x-21 +2 x-20 +2 x-18 +2 x-15 +2 x-13 +2 x-9 +2 x-8 +2 x-5 >= 47
+18 x36 +16 x17 +2 x-44 +2 x-42 +2 x-41 +2 x-40 +2 x-37 +2 x-26 +2 x-25 +2 x-24 +2 x-23 +2 x-22 +2 x-21 +2 x-20 +2 x-19 +2 x-18 +2 x-16 +2 x-15 +2 x-14 +2 x-13 +2 x-12 +2 x-11 +2 x-10 +2 x-9 +2 x-8 +2 x-7 +2 x-6 +2 x-5 +2 x-4 +2 x-3 +2 x-2 +2 x-1 >= 47
+24 x37 +16 x17 +2 x-44 +2 x-42 +2 x-41 +2 x-40 +2 x-36 +2 x-25 +2 x-24 +2 x-23 +2 x-20 +2 x-19 +2 x-18 +2 x-16 +2 x-15 +2 x-14 +2 x-13 +2 x-12 +2 x-11 +2 x-10 +2 x-9 +2 x-8 +2 x-7 +2 x-6 +2 x-5 +2 x-4 +2 x-3 +2 x-2 +2 x-1 >= 47
+22 x36 +16 x17 +2 x-44 +2 x-42 +2 x-41 +2 x-37 +2 x-25 +2 x-24 +2 x-23 +2 x-22 +2 x-21 +2 x-20 +2 x-19 +2 x-18 +2 x-16 +2 x-15 +2 x-14 +2 x-13 +2 x-12 +2 x-11 +2 x-10 +2 x-9 +2 x-8 +2 x-7 +2 x-6 +2 x-5 +2 x-4 +2 x-3 +2 x-2 +2 x-1 >= 47
+26 x4 +2 x-44 +2 x-42 +2 x-41 +2 x-34 +2 x-33 +2 x-32 +2 x-31 +2 x-30 +2 x-29 +2 x-28 +2 x-27 +2 x-26 +2 x-25 +2 x-24 +2 x-23 +2 x-22 +2 x-21 +2 x-20 +2 x-19 +2 x-18 +2 x-17 +2 x-16 +2 x-15 +2 x-14 +2 x-13 +2 x-12 +2 x-11 +2 x-10 +2 x-9 +2 x-8 +2 x-7 +2 x-6 +2 x-5 +2 x-3 +2 x-2 +2 x-1 >= 49
+24 x19 +2 x-44 +2 x-42 +2 x-41 +2 x-35 +2 x-34 +2 x-33 +2 x-32 +2 x-31 +2 x-30 +2 x-29 +2 x-28 +2 x-27 +2 x-26 +2 x-25 +2 x-24 +2 x-23 +2 x-22 +2 x-21 +2 x-20 +2 x-18 +2 x-17 +2 x-16 +2 x-15 +2 x-14 +2 x-13 +2 x-12 +2 x-11 +2 x-10 +2 x-9 +2 x-8 +2 x-7 +2 x-6 +2 x-5 +2 x-4 +2 x-3 +2 x-2 +2 x-1 >= 49
+26 x40 +16 x17 +2 x-44 +2 x-42 +2 x-41 +2 x-37 +2 x-36 +2 x-25 +2 x-24 +2 x-23 +2 x-19 +2 x-18 +2 x-16 +2 x-15 +2 x-14 +2 x-13 +2 x-12 +2 x-11 +2 x-10 +2 x-9 +2 x-8 +2 x-7 +2 x-6 +2 x-5 +2 x-4 +2 x-3 +2 x-2 +2 x-1 >= 47
+24 x36 +16 x17 +2 x-44 +2 x-42 +2 x-37 +2 x-25 +2 x-24 +2 x-23 +2 x-22 +2 x-21 +2 x-20 +2 x-19 +2 x-18 +2 x-16 +2 x-15 +2 x-14 +2 x-13 +2 x-12 +2 x-11 +2 x-10 +2 x-9 +2 x-8 +2 x-7 +2 x-6 +2 x-5 +2 x-4 +2 x-3 +2 x-2 +2 x-1 >= 47
+26 x4 +2 x-44 +2 x-42 +2 x-40 +2 x-34 +2 x-33 +2 x-32 +2 x-31 +2 x-30 +2 x-29 +2 x-28 +2 x-27 +2 x-26 +2 x-25 +2 x-24 +2 x-23 +2 x-22 +2 x-21 +2 x-20 +2 x-19 +2 x-18 +2 x-17 +2 x-16 +2 x-15 +2 x-14 +2 x-13 +2 x-12 +2 x-11 +2 x-10 +2 x-9 +2 x-8 +2 x-7 +2 x-6 +2 x-5 +2 x-3 +2 x-2 +2 x-1 >= 49
+24 x19 +2 x-44 +2 x-42 +2 x-40 +2 x-35 +2 x-34 +2 x-33 +2 x-32 +2 x-31 +2 x-30 +2 x-29 +2 x-28 +2 x-27 +2 x-26 +2 x-25 +2 x-24 +2 x-23 +2 x-22 +2 x-21 +2 x-20 +2 x-18 +2 x-17 +2 x-16 +2 x-15 +2 x-14 +2 x-13 +2 x-12 +2 x-11 +2 x-10 +2 x-9 +2 x-8 +2 x-7 +2 x-6 +2 x-5 +2 x-4 +2 x-3 +2 x-2 +2 x-1 >= 49
+30 x41 +16 x17 +2 x-44 +2 x-42 +2 x-40 +2 x-37 +2 x-36 +2 x-25 +2 x-24 +2 x-23 +2 x-19 +2 x-15 +2 x-14 +2 x-13 +2 x-12 +2 x-11 +2 x-10 +2 x-9 +2 x-8 +2 x-7 +2 x-6 +2 x-5 +2 x-4 +2 x-3 +2 x-2 +2 x-1 >= 47
+28 x40 +16 x17 +2 x-44 +2 x-41 +2 x-37 +2 x-36 +2 x-25 +2 x-24 +2 x-23 +2 x-19 +2 x-18 +2 x-16 +2 x-15 +2 x-14 +2 x-13 +2 x-12 +2 x-11 +2 x-10 +2 x-9 +2 x-8 +2 x-7 +2 x-6 +2 x-5 +2 x-4 +2 x-3 +2 x-2 +2 x-1 >= 47
+28 x4 +2 x-44 +2 x-41 +2 x-40 +2 x-33 +2 x-32 +2 x-31 +2 x-30 +2 x-29 +2 x-28 +2 x-27 +2 x-26 +2 x-25 +2 x-24 +2 x-23 +2 x-22 +2 x-21 +2 x-20 +2 x-19 +2 x-18 +2 x-17 +2 x-16 +2 x-15 +2 x-14 +2 x-13 +2 x-12 +2 x-11 +2 x-10 +2 x-9 +2 x-8 +2 x-7 +2 x-6 +2 x-5 +2 x-3 +2 x-2 +2 x-1 >= 49
+24 x19 +2 x-44 +2 x-41 +2 x-40 +2 x-35 +2 x-34 +2 x-33 +2 x-32 +2 x-31 +2 x-30 +2 x-29 +2 x-28 +2 x-27 +2 x-26 +2 x-25 +2 x-24 +2 x-23 +2 x-22 +2 x-21 +2 x-20 +2 x-18 +2 x-17 +2 x-16 +2 x-15 +2 x-14 +2 x-13 +2 x-12 +2 x-11 +2 x-10 +2 x-9 +2 x-8 +2 x-7 +2 x-6 +2 x-5 +2 x-4 +2 x-3 +2 x-2 +2 x-1 >= 49
+34 x42 +16 x17 +2 x-44 +2 x-41 +2 x-40 +2 x-37 +2 x-36 +2 x-25 +2 x-24 +2 x-23 +2 x-19 +2 x-13 +2 x-12 +2 x-11 +2 x-10 +2 x-9 +2 x-8 +2 x-7 +2 x-6 +2 x-5 +2 x-4 +2 x-3 +2 x-2 +2 x-1 >= 47
+32 x41 +16 x17 +2 x-42 +2 x-40 +2 x-37 +2 x-36 +2 x-25 +2 x-24 +2 x-23 +2 x-19 +2 x-15 +2 x-14 +2 x-13 +2 x-12 +2 x-11 +2 x-10 +2 x-9 +2 x-8 +2 x-7 +2 x-6 +2 x-5 +2 x-4 +2 x-3 +2 x-2 +2 x-1 >= 47
+30 x40 +16 x17 +2 x-42 +2 x-41 +2 x-36 +2 x-25 +2 x-24 +2 x-23 +2 x-19 +2 x-18 +2 x-16 +2 x-15 +2 x-14 +2 x-13 +2 x-12 +2 x-11 +2 x-10 +2 x-9 +2 x-8 +2 x-7 +2 x-6 +2 x-5 +2 x-4 +2 x-3 +2 x-2 +2 x-1 >= 47
+32 x4 +2 x-41 +2 x-40 +2 x-32 +2 x-31 +2 x-30 +2 x-29 +2 x-28 +2 x-27 +2 x-26 +2 x-25 +2 x-24 +2 x-23 +2 x-22 +2 x-21 +2 x-20 +2 x-19 +2 x-18 +2 x-17 +2 x-16 +2 x-15 +2 x-14 +2 x-13 +2 x-12 +2 x-11 +2 x-10 +2 x-9 +2 x-8 +2 x-7 +2 x-6 +2 x-5 +2 x-3 +2 x-2 +2 x-1 >= 49
+24 x19 +2 x-42 +2 x-41 +2 x-40 +2 x-35 +2 x-34 +2 x-33 +2 x-32 +2 x-31 +2 x-30 +2 x-29 +2 x-28 +2 x-27 +2 x-26 +2 x-25 +2 x-24 +2 x-23 +2 x-22 +2 x-21 +2 x-20 +2 x-18 +2 x-17 +2 x-16 +2 x-15 +2 x-14 +2 x-13 +2 x-12 +2 x-11 +2 x-10 +2 x-9 +2 x-8 +2 x-7 +2 x-6 +2 x-5 +2 x-4 +2 x-3 +2 x-2 +2 x-1 >= 49
